networks/zoo_122_2930/zoo_122_2930-lower.txt
Number of groups: 60
Flow 1: {1 36 0} {36 15 0} {56 5 0} {5 2 0} {2 63 0} 
Flow 1: {15 56 0} Flow 2: {36 3 0} {3 64 0} 
Flow 3: {38 4 0} {4 65 0} 
Flow 3: {36 38 0} Flow 4: {5 66 0} 
Flow 5: {56 6 0} {6 67 0} 
Flow 6: {56 7 0} {7 68 0} 
Flow 7: {5 8 0} {8 69 0} 
Flow 8: {23 9 0} {9 70 0} 
Flow 8: {15 50 0} {50 19 0} {19 22 0} {22 23 0} Flow 9: {59 10 0} {10 71 0} 
Flow 9: {38 59 0} Flow 10: {56 11 0} {11 72 0} 
Flow 11: {56 12 0} {12 73 0} 
Flow 12: {22 21 0} {21 13 0} {13 74 0} 
Flow 13: {30 14 0} {14 75 0} 
Flow 13: {15 30 0} Flow 14: {15 76 0} 
Flow 15: {36 16 0} {16 77 0} 
Flow 16: {36 35 0} {35 17 0} {17 78 0} 
Flow 17: {35 18 0} {18 79 0} 
Flow 18: {19 80 0} 
Flow 19: {22 20 0} {20 81 0} 
Flow 20: {21 82 0} 
Flow 21: {22 83 0} 
Flow 22: {23 84 0} 
Flow 23: {22 24 0} {24 85 0} 
Flow 24: {38 25 0} {25 86 0} 
Flow 25: {38 26 0} {26 87 0} 
Flow 26: {15 27 0} {27 88 0} 
Flow 27: {56 28 0} {28 89 0} 
Flow 28: {56 29 0} {29 90 0} 
Flow 29: {30 91 0} 
Flow 30: {30 31 0} {31 92 0} 
Flow 31: {35 32 0} {32 93 0} 
Flow 32: {50 33 0} {33 94 0} 
Flow 33: {32 34 0} {34 95 0} 
Flow 34: {35 96 0} 
Flow 35: {36 97 0} 
Flow 36: {35 37 0} {37 98 0} 
Flow 37: {38 99 0} 
Flow 38: {38 39 0} {39 100 0} 
Flow 39: {38 40 0} {40 101 0} 
Flow 40: {38 41 0} {41 102 0} 
Flow 41: {19 42 0} {42 103 0} 
Flow 42: {50 43 0} {43 104 0} 
Flow 43: {19 44 0} {44 105 0} 
Flow 44: {56 45 0} {45 106 0} 
Flow 45: {7 46 0} {46 107 0} 
Flow 46: {15 47 0} {47 108 0} 
Flow 47: {50 49 0} {49 110 0} 
Flow 48: {50 111 0} 
Flow 49: {50 51 0} {51 112 0} 
Flow 50: {38 52 0} {52 113 0} 
Flow 51: {36 53 0} {53 114 0} 
Flow 52: {16 54 0} {54 115 0} 
Flow 53: {41 55 0} {55 116 0} 
Flow 54: {56 117 0} 
Flow 55: {36 57 0} {57 118 0} 
Flow 56: {15 58 0} {58 119 0} 
Flow 57: {59 120 0} 
Flow 58: {56 60 0} {60 121 0} 
Flow 59: {47 61 0} {61 122 0} 
Flow 60: {36 1 0} {1 62 0} 
Flow 60: {2 5 0} {5 56 0} {56 15 0} {15 36 0} Flow 62: {56 38 0} Flow 67: {5 11 0} {11 22 0} Flow 74: {38 16 0} Flow 75: {15 35 0} Flow 77: {56 19 0} Flow 93: {38 37 0} Flow 101: {11 45 0} Flow 111: {38 57 0} Flow 116: {3 36 0} Flow 175: {4 38 0} {38 36 0} Flow 176: {38 56 0} Flow 191: {57 18 0} Flow 229: {40 60 0} Flow 274: {11 46 0} Flow 289: {6 56 0} Flow 348: {7 56 0} Flow 356: {46 11 0} Flow 399: {8 5 0} Flow 455: {9 23 0} {23 22 0} {22 11 0} {11 56 0} Flow 456: {11 5 0} Flow 461: {46 7 0} Flow 472: {22 19 0} Flow 484: {19 50 0} Flow 510: {10 59 0} {59 38 0} Flow 623: {12 56 0} Flow 664: {13 21 0} {21 22 0} Flow 685: {14 30 0} {30 15 0} Flow 711: {30 60 0} {60 41 0} Flow 782: {16 36 0} Flow 783: {16 38 0} Flow 837: {17 35 0} {35 36 0} Flow 840: {35 15 0} Flow 864: {18 57 0} {57 39 0} Flow 879: {57 36 0} Flow 880: {57 38 0} Flow 892: {18 35 0} Flow 935: {19 56 0} Flow 994: {20 22 0} Flow 1176: {24 22 0} Flow 1227: {25 38 0} Flow 1283: {26 38 0} Flow 1340: {27 15 0} Flow 1395: {28 56 0} Flow 1454: {29 56 0} Flow 1525: {60 40 0} Flow 1546: {31 30 0} Flow 1555: {32 35 0} Flow 1611: {33 50 0} {50 15 0} Flow 1631: {34 32 0} Flow 1805: {37 35 0} Flow 1806: {37 38 0} Flow 1868: {39 38 0} Flow 1885: {39 57 0} Flow 1926: {40 38 0} Flow 1935: {60 30 0} Flow 1965: {41 38 0} Flow 1978: {41 60 0} Flow 2024: {42 19 0} Flow 2033: {43 50 0} Flow 2055: {44 19 0} Flow 2102: {45 56 0} Flow 2103: {45 11 0} Flow 2210: {47 15 0} Flow 2266: {48 50 0} Flow 2277: {49 50 0} Flow 2387: {51 50 0} Flow 2430: {52 38 0} Flow 2473: {53 36 0} Flow 2532: {54 16 0} Flow 2578: {55 41 0} Flow 2721: {58 15 0} Flow 2832: {60 56 0} Flow 2890: {61 47 0} Time taken running everything: 0 seconds
