networks/zoo_122_2930/zoo_122_2930-lower.sol
<?xml version = "1.0" encoding="UTF-8" standalone="yes"?>
<CPLEXSolution version="1.2">
 <header
   problemName="networks/zoo_122_2930/zoo_122_2930-lower.lp"
   solutionName="incumbent"
   solutionIndex="-1"
   objectiveValue="60"
   solutionTypeValue="3"
   solutionTypeString="primal"
   solutionStatusValue="101"
   solutionStatusString="integer optimal solution"
   solutionMethodString="mip"
   primalFeasible="1"
   dualFeasible="1"
   MIPNodes="0"
   MIPIterations="0"
   writeLevel="3"/>
 <quality
   epInt="1.0000000000000001e-05"
   epRHS="9.9999999999999995e-07"
   maxIntInfeas="0"
   maxPrimalInfeas="0"
   maxX="1"
   maxSlack="1"/>
 <variables>
  <variable name="Y(1,2)" index="1" value="1"/>
  <variable name="Y(2,3)" index="123" value="1"/>
  <variable name="Y(3,4)" index="245" value="1"/>
  <variable name="Y(4,5)" index="367" value="1"/>
  <variable name="Y(5,6)" index="489" value="1"/>
  <variable name="Y(6,7)" index="611" value="1"/>
  <variable name="Y(7,8)" index="733" value="1"/>
  <variable name="Y(8,9)" index="855" value="1"/>
  <variable name="Y(9,10)" index="977" value="1"/>
  <variable name="Y(10,11)" index="1099" value="1"/>
  <variable name="Y(11,12)" index="1221" value="1"/>
  <variable name="Y(12,13)" index="1343" value="1"/>
  <variable name="Y(13,14)" index="1465" value="1"/>
  <variable name="Y(14,15)" index="1587" value="1"/>
  <variable name="Y(15,16)" index="1709" value="1"/>
  <variable name="Y(16,17)" index="1831" value="1"/>
  <variable name="Y(17,18)" index="1953" value="1"/>
  <variable name="Y(18,19)" index="2075" value="1"/>
  <variable name="Y(19,20)" index="2197" value="1"/>
  <variable name="Y(20,21)" index="2319" value="1"/>
  <variable name="Y(21,22)" index="2441" value="1"/>
  <variable name="Y(22,23)" index="2563" value="1"/>
  <variable name="Y(23,24)" index="2685" value="1"/>
  <variable name="Y(24,25)" index="2807" value="1"/>
  <variable name="Y(25,26)" index="2929" value="1"/>
  <variable name="Y(26,27)" index="3051" value="1"/>
  <variable name="Y(27,28)" index="3173" value="1"/>
  <variable name="Y(28,29)" index="3295" value="1"/>
  <variable name="Y(29,30)" index="3417" value="1"/>
  <variable name="Y(30,31)" index="3539" value="1"/>
  <variable name="Y(31,32)" index="3661" value="1"/>
  <variable name="Y(32,33)" index="3783" value="1"/>
  <variable name="Y(33,34)" index="3905" value="1"/>
  <variable name="Y(34,35)" index="4027" value="1"/>
  <variable name="Y(35,36)" index="4149" value="1"/>
  <variable name="Y(36,37)" index="4271" value="1"/>
  <variable name="Y(37,38)" index="4393" value="1"/>
  <variable name="Y(38,39)" index="4515" value="1"/>
  <variable name="Y(39,40)" index="4637" value="1"/>
  <variable name="Y(40,41)" index="4759" value="1"/>
  <variable name="Y(41,42)" index="4881" value="1"/>
  <variable name="Y(42,43)" index="5003" value="1"/>
  <variable name="Y(43,44)" index="5125" value="1"/>
  <variable name="Y(44,45)" index="5247" value="1"/>
  <variable name="Y(45,46)" index="5369" value="1"/>
  <variable name="Y(46,47)" index="5491" value="1"/>
  <variable name="Y(47,49)" index="5614" value="1"/>
  <variable name="Y(48,50)" index="5736" value="1"/>
  <variable name="Y(49,51)" index="5858" value="1"/>
  <variable name="Y(50,52)" index="5980" value="1"/>
  <variable name="Y(51,53)" index="6102" value="1"/>
  <variable name="Y(52,54)" index="6224" value="1"/>
  <variable name="Y(53,55)" index="6346" value="1"/>
  <variable name="Y(54,56)" index="6468" value="1"/>
  <variable name="Y(55,57)" index="6590" value="1"/>
  <variable name="Y(56,58)" index="6712" value="1"/>
  <variable name="Y(57,59)" index="6834" value="1"/>
  <variable name="Y(58,60)" index="6956" value="1"/>
  <variable name="Y(59,61)" index="7078" value="1"/>
  <variable name="Y(60,1)" index="7139" value="1"/>
  <variable name="X(1,36,1)" index="354530" value="1"/>
  <variable name="X(1,62,60)" index="357519" value="1"/>
  <variable name="X(2,5,60)" index="360449" value="1"/>
  <variable name="X(2,63,1)" index="363320" value="1"/>
  <variable name="X(3,36,116)" index="366365" value="1"/>
  <variable name="X(3,64,2)" index="369181" value="1"/>
  <variable name="X(4,38,175)" index="372284" value="1"/>
  <variable name="X(4,65,3)" index="375042" value="1"/>
  <variable name="X(5,2,1)" index="377970" value="1"/>
  <variable name="X(5,8,7)" index="380906" value="1"/>
  <variable name="X(5,11,67)" index="383896" value="1"/>
  <variable name="X(5,56,60)" index="386819" value="1"/>
  <variable name="X(5,66,4)" index="389693" value="1"/>
  <variable name="X(6,56,289)" index="392908" value="1"/>
  <variable name="X(6,67,5)" index="395554" value="1"/>
  <variable name="X(7,46,45)" index="398524" value="1"/>
  <variable name="X(7,56,348)" index="401757" value="1"/>
  <variable name="X(7,68,6)" index="404345" value="1"/>
  <variable name="X(8,5,399)" index="407668" value="1"/>
  <variable name="X(8,69,7)" index="410206" value="1"/>
  <variable name="X(9,23,455)" index="413584" value="1"/>
  <variable name="X(9,70,8)" index="416067" value="1"/>
  <variable name="X(10,59,510)" index="419499" value="1"/>
  <variable name="X(10,71,9)" index="421928" value="1"/>
  <variable name="X(11,5,456)" index="425305" value="1"/>
  <variable name="X(11,22,67)" index="427846" value="1"/>
  <variable name="X(11,45,101)" index="430810" value="1"/>
  <variable name="X(11,46,274)" index="433913" value="1"/>
  <variable name="X(11,56,455)" index="437024" value="1"/>
  <variable name="X(11,72,10)" index="439509" value="1"/>
  <variable name="X(12,56,623)" index="443052" value="1"/>
  <variable name="X(12,73,11)" index="445370" value="1"/>
  <variable name="X(13,21,664)" index="448953" value="1"/>
  <variable name="X(13,74,12)" index="451231" value="1"/>
  <variable name="X(14,30,685)" index="454834" value="1"/>
  <variable name="X(14,75,13)" index="457092" value="1"/>
  <variable name="X(15,27,26)" index="460035" value="1"/>
  <variable name="X(15,30,13)" index="462952" value="1"/>
  <variable name="X(15,35,75)" index="465944" value="1"/>
  <variable name="X(15,36,60)" index="468859" value="1"/>
  <variable name="X(15,47,46)" index="471775" value="1"/>
  <variable name="X(15,50,8)" index="474667" value="1"/>
  <variable name="X(15,56,1)" index="477590" value="1"/>
  <variable name="X(15,58,56)" index="480575" value="1"/>
  <variable name="X(15,76,14)" index="483463" value="1"/>
  <variable name="X(16,36,782)" index="487161" value="1"/>
  <variable name="X(16,38,783)" index="490092" value="1"/>
  <variable name="X(16,54,52)" index="492291" value="1"/>
  <variable name="X(16,77,15)" index="495184" value="1"/>
  <variable name="X(17,35,837)" index="498936" value="1"/>
  <variable name="X(17,78,16)" index="501045" value="1"/>
  <variable name="X(18,35,892)" index="504851" value="1"/>
  <variable name="X(18,57,864)" index="507753" value="1"/>
  <variable name="X(18,79,17)" index="509836" value="1"/>
  <variable name="X(19,22,8)" index="512757" value="1"/>
  <variable name="X(19,42,41)" index="515720" value="1"/>
  <variable name="X(19,44,43)" index="518652" value="1"/>
  <variable name="X(19,50,484)" index="522023" value="1"/>
  <variable name="X(19,56,935)" index="525404" value="1"/>
  <variable name="X(19,80,18)" index="527417" value="1"/>
  <variable name="X(20,22,994)" index="531323" value="1"/>
  <variable name="X(20,81,19)" index="533278" value="1"/>
  <variable name="X(21,13,12)" index="536201" value="1"/>
  <variable name="X(21,22,664)" index="539783" value="1"/>
  <variable name="X(21,82,20)" index="542069" value="1"/>
  <variable name="X(22,11,455)" index="545434" value="1"/>
  <variable name="X(22,19,472)" index="548381" value="1"/>
  <variable name="X(22,20,19)" index="550858" value="1"/>
  <variable name="X(22,21,12)" index="553781" value="1"/>
  <variable name="X(22,23,8)" index="556707" value="1"/>
  <variable name="X(22,24,23)" index="559652" value="1"/>
  <variable name="X(22,83,21)" index="562580" value="1"/>
  <variable name="X(23,9,8)" index="565497" value="1"/>
  <variable name="X(23,22,455)" index="568874" value="1"/>
  <variable name="X(23,84,22)" index="571371" value="1"/>
  <variable name="X(24,22,1176)" index="575455" value="1"/>
  <variable name="X(24,85,23)" index="577232" value="1"/>
  <variable name="X(25,38,1227)" index="581366" value="1"/>
  <variable name="X(25,86,24)" index="583093" value="1"/>
  <variable name="X(26,38,1283)" index="587282" value="1"/>
  <variable name="X(26,87,25)" index="588954" value="1"/>
  <variable name="X(27,15,1340)" index="593199" value="1"/>
  <variable name="X(27,88,26)" index="594815" value="1"/>
  <variable name="X(28,56,1395)" index="599114" value="1"/>
  <variable name="X(28,89,27)" index="600676" value="1"/>
  <variable name="X(29,56,1454)" index="605033" value="1"/>
  <variable name="X(29,90,28)" index="606537" value="1"/>
  <variable name="X(30,14,13)" index="609452" value="1"/>
  <variable name="X(30,15,685)" index="613054" value="1"/>
  <variable name="X(30,31,30)" index="615329" value="1"/>
  <variable name="X(30,60,711)" index="618940" value="1"/>
  <variable name="X(30,91,29)" index="621188" value="1"/>
  <variable name="X(31,30,1546)" index="625635" value="1"/>
  <variable name="X(31,92,30)" index="627049" value="1"/>
  <variable name="X(32,34,33)" index="629982" value="1"/>
  <variable name="X(32,35,1555)" index="634434" value="1"/>
  <variable name="X(32,93,31)" index="635840" value="1"/>
  <variable name="X(33,50,1611)" index="640350" value="1"/>
  <variable name="X(33,94,32)" index="641701" value="1"/>
  <variable name="X(34,32,1631)" index="646230" value="1"/>
  <variable name="X(34,95,33)" index="647562" value="1"/>
  <variable name="X(35,15,840)" index="651299" value="1"/>
  <variable name="X(35,17,16)" index="653405" value="1"/>
  <variable name="X(35,18,17)" index="656336" value="1"/>
  <variable name="X(35,32,31)" index="659280" value="1"/>
  <variable name="X(35,36,837)" index="663016" value="1"/>
  <variable name="X(35,37,36)" index="665145" value="1"/>
  <variable name="X(35,96,34)" index="668073" value="1"/>
  <variable name="X(36,1,60)" index="671029" value="1"/>
  <variable name="X(36,3,2)" index="673901" value="1"/>
  <variable name="X(36,15,1)" index="676830" value="1"/>
  <variable name="X(36,16,15)" index="679774" value="1"/>
  <variable name="X(36,35,16)" index="682705" value="1"/>
  <variable name="X(36,38,3)" index="685622" value="1"/>
  <variable name="X(36,53,51)" index="688600" value="1"/>
  <variable name="X(36,57,55)" index="691534" value="1"/>
  <variable name="X(36,97,35)" index="694444" value="1"/>
  <variable name="X(37,35,1805)" index="699144" value="1"/>
  <variable name="X(37,38,1806)" index="702075" value="1"/>
  <variable name="X(37,98,36)" index="703235" value="1"/>
  <variable name="X(38,4,3)" index="706132" value="1"/>
  <variable name="X(38,16,74)" index="709133" value="1"/>
  <variable name="X(38,25,24)" index="712013" value="1"/>
  <variable name="X(38,26,25)" index="714944" value="1"/>
  <variable name="X(38,36,175)" index="718024" value="1"/>
  <variable name="X(38,37,93)" index="720872" value="1"/>
  <variable name="X(38,39,38)" index="723747" value="1"/>
  <variable name="X(38,40,39)" index="726678" value="1"/>
  <variable name="X(38,41,40)" index="729609" value="1"/>
  <variable name="X(38,52,50)" index="732549" value="1"/>
  <variable name="X(38,56,176)" index="735605" value="1"/>
  <variable name="X(38,57,111)" index="738470" value="1"/>
  <variable name="X(38,59,9)" index="741298" value="1"/>
  <variable name="X(38,99,37)" index="744256" value="1"/>
  <variable name="X(39,38,1868)" index="749017" value="1"/>
  <variable name="X(39,57,1885)" index="751964" value="1"/>
  <variable name="X(39,100,38)" index="753047" value="1"/>
  <variable name="X(40,38,1926)" index="757865" value="1"/>
  <variable name="X(40,60,229)" index="759098" value="1"/>
  <variable name="X(40,101,39)" index="761838" value="1"/>
  <variable name="X(41,38,1965)" index="766694" value="1"/>
  <variable name="X(41,55,53)" index="767712" value="1"/>
  <variable name="X(41,60,1978)" index="772567" value="1"/>
  <variable name="X(41,102,40)" index="773559" value="1"/>
  <variable name="X(42,19,2024)" index="778473" value="1"/>
  <variable name="X(42,103,41)" index="779420" value="1"/>
  <variable name="X(43,50,2033)" index="784342" value="1"/>
  <variable name="X(43,104,42)" index="785281" value="1"/>
  <variable name="X(44,19,2055)" index="790224" value="1"/>
  <variable name="X(44,105,43)" index="791142" value="1"/>
  <variable name="X(45,11,2103)" index="796132" value="1"/>
  <variable name="X(45,56,2102)" index="799061" value="1"/>
  <variable name="X(45,106,44)" index="799933" value="1"/>
  <variable name="X(46,7,461)" index="803280" value="1"/>
  <variable name="X(46,11,356)" index="806105" value="1"/>
  <variable name="X(46,107,45)" index="808724" value="1"/>
  <variable name="X(47,15,2210)" index="813819" value="1"/>
  <variable name="X(47,61,59)" index="814598" value="1"/>
  <variable name="X(47,108,46)" index="817515" value="1"/>
  <variable name="X(48,50,2266)" index="822665" value="1"/>
  <variable name="X(49,50,2277)" index="825606" value="1"/>
  <variable name="X(49,110,47)" index="826306" value="1"/>
  <variable name="X(50,15,1611)" index="830800" value="1"/>
  <variable name="X(50,19,8)" index="832127" value="1"/>
  <variable name="X(50,33,32)" index="835081" value="1"/>
  <variable name="X(50,43,42)" index="838021" value="1"/>
  <variable name="X(50,49,47)" index="840956" value="1"/>
  <variable name="X(50,51,49)" index="843888" value="1"/>
  <variable name="X(50,111,48)" index="846817" value="1"/>
  <variable name="X(51,50,2387)" index="852086" value="1"/>
  <variable name="X(51,112,49)" index="852678" value="1"/>
  <variable name="X(52,38,2430)" index="857989" value="1"/>
  <variable name="X(52,113,50)" index="858539" value="1"/>
  <variable name="X(53,36,2473)" index="863892" value="1"/>
  <variable name="X(53,114,51)" index="864400" value="1"/>
  <variable name="X(54,16,2532)" index="869811" value="1"/>
  <variable name="X(54,115,52)" index="870261" value="1"/>
  <variable name="X(55,41,2578)" index="875717" value="1"/>
  <variable name="X(55,116,53)" index="876122" value="1"/>
  <variable name="X(56,5,1)" index="879000" value="1"/>
  <variable name="X(56,6,5)" index="881934" value="1"/>
  <variable name="X(56,7,6)" index="884865" value="1"/>
  <variable name="X(56,11,10)" index="887799" value="1"/>
  <variable name="X(56,12,11)" index="890730" value="1"/>
  <variable name="X(56,15,60)" index="893709" value="1"/>
  <variable name="X(56,19,77)" index="896656" value="1"/>
  <variable name="X(56,28,27)" index="899536" value="1"/>
  <variable name="X(56,29,28)" index="902467" value="1"/>
  <variable name="X(56,38,62)" index="905431" value="1"/>
  <variable name="X(56,45,44)" index="908343" value="1"/>
  <variable name="X(56,60,58)" index="911287" value="1"/>
  <variable name="X(56,117,54)" index="914213" value="1"/>
  <variable name="X(57,18,191)" index="917280" value="1"/>
  <variable name="X(57,36,879)" index="920898" value="1"/>
  <variable name="X(57,38,880)" index="923829" value="1"/>
  <variable name="X(57,39,864)" index="926743" value="1"/>
  <variable name="X(57,118,55)" index="928864" value="1"/>
  <variable name="X(58,15,2721)" index="934460" value="1"/>
  <variable name="X(58,119,56)" index="934725" value="1"/>
  <variable name="X(59,10,9)" index="937608" value="1"/>
  <variable name="X(59,38,510)" index="941039" value="1"/>
  <variable name="X(59,120,57)" index="943516" value="1"/>
  <variable name="X(60,30,1935)" index="948324" value="1"/>
  <variable name="X(60,40,1525)" index="950844" value="1"/>
  <variable name="X(60,41,711)" index="952960" value="1"/>
  <variable name="X(60,56,2832)" index="958011" value="1"/>
  <variable name="X(60,121,58)" index="958167" value="1"/>
  <variable name="X(61,47,2890)" index="963929" value="1"/>
  <variable name="X(61,122,59)" index="964028" value="1"/>
 </variables>
</CPLEXSolution>
